\ENCODING=ISO-8859-1
\Problem name: ilog.cplex

Minimize
 obj: 299.483215332031 x1 + 269.839294433594 x2 + 258.154296875 x3
      + 263.625152587891 x4 + 176.722778320312 x5 + 219.316253662109 x6
      + 263.933044433594 x7 + 162.281814575195 x8 + 174.963607788086 x9
      + 175.926940917969 x10 + 193.985549926758 x11 + 266.230560302734 x12
      + 163.190139770508 x13 + 171.747909545898 x14 + 132.750701904297 x15
      + 385.122802734375 x16 + 378.191589355469 x17 + 347.597564697266 x18
      + 358.996734619141 x19 + 333.962493896484 x20 + 353.213439941406 x21
      + 319.638336181641 x22 + 318.816192626953 x23 + 315.347900390625 x24
      + 217.178314208984 x25 + 237.011276245117 x26 + 263.637176513672 x27
      + 259.450042724609 x28 + 256.912963867188 x29 + 254.384826660156 x30
      + 177.522552490234 x31 + 212.902053833008 x32 + 205.23258972168 x33
      + 252.991104125977 x34 + 251.782150268555 x35 + 255.290786743164 x36
      + 249.460632324219 x37 + 216.501892089844 x38 + 172.312271118164 x39
      + 190.641784667969 x40 + 241.809524536133 x41 + 182.152313232422 x42
      + 244.316360473633 x43 + 259.3662109375 x44 + 183.047744750977 x45
      + 223.376556396484 x46 + 242.595352172852 x47 + 255.560913085938 x48
      + 228.58039855957 x49 + 230.405715942383 x50 + 188.761932373047 x51
      + 232.34977722168 x52 + 224.042922973633 x53 + 266.513549804688 x54
      + 302.135681152344 x55 + 264.174041748047 x56 + 314.215759277344 x57
      + 308.471130371094 x58 + 304.839019775391 x59 + 325.948486328125 x60
      + 314.761505126953 x61 + 313.707763671875 x62 + 219.316253662109 x63
      + 314.161102294922 x64 + 280.278198242188 x65 + 267.150146484375 x66
      + 261.791656494141 x67 + 307.321258544922 x68 + 266.230560302734 x69
      + 163.190139770508 x70 + 323.646942138672 x71 + 254.611389160156 x72
      + 385.122802734375 x73 + 378.191589355469 x74 + 393.025573730469 x75
      + 416.909820556641 x76 + 404.071685791016 x77 + 421.489868164062 x78
      + 419.588409423828 x79 + 318.816192626953 x80 + 412.027923583984 x81
      + 426.357299804688 x82 + 312.761291503906 x83 + 281.068908691406 x84
      + 324.418640136719 x85 + 433.923980712891 x86 + 438.725646972656 x87
      + 265.235961914062 x88 + 419.243133544922 x89 + 411.084777832031 x90
      + 295.601684570312 x91 + 430.539184570312 x92 + 409.765838623047 x93
      + 362.740051269531 x94 + 380.733520507812 x95 + 394.516662597656 x96
      + 305.601745605469 x97 + 449.572418212891 x98 + 417.87744140625 x99
      + 294.067962646484 x100 + 408.543579101562 x101 + 445.505310058594 x102
      + 444.25634765625 x103 + 242.595352172852 x104 + 420.729431152344 x105
      + 385.421447753906 x106 + 406.527038574219 x107 + 284.187866210938 x108
      + 252.460510253906 x109 + 419.206817626953 x110 + 399.993835449219 x111
      + 409.33984375 x112 + 302.407989501953 x113 + 394.138763427734 x114
      + 299.483215332031 x115 + 320.011779785156 x116 + 309.235137939453 x117
      + 263.625152587891 x118 + 192.017929077148 x119 + 219.316253662109 x120
      + 315.069458007812 x121 + 198.318740844727 x122 + 312.763732910156 x123
      + 175.926940917969 x124 + 255.265258789062 x125 + 266.230560302734 x126
      + 177.404571533203 x127 + 171.747909545898 x128 + 288.234436035156 x129
      + 417.395263671875 x130 + 391.820434570312 x131 + 363.196258544922 x132
      + 358.996734619141 x133 + 373.761596679688 x134 + 393.4736328125 x135
      + 403.460021972656 x136 + 436.191284179688 x137 + 341.462585449219 x138
      + 267.379272460938 x139 + 382.269348144531 x140 + 392.908233642578 x141
      + 432.042297363281 x142 + 275.656127929688 x143 + 434.640380859375 x144
      + 433.037048339844 x145 + 411.357604980469 x146 + 401.733978271484 x147
      + 252.991104125977 x148 + 365.219604492188 x149 + 395.034362792969 x150
      + 249.460632324219 x151 + 373.58984375 x152 + 287.214416503906 x153
      + 264.9990234375 x154 + 469.620544433594 x155 + 428.768981933594 x156
      + 392.374267578125 x157 + 300.46875 x158 + 408.977325439453 x159
      + 287.807495117188 x160 + 242.595352172852 x161 + 386.086822509766 x162
      + 449.404632568359 x163 + 399.953033447266 x164 + 397.661865234375 x165
      + 324.102722167969 x166 + 268.044982910156 x167 + 450.367401123047 x168
      + 393.67041015625 x169 + 284.950439453125 x170 + 314.215759277344 x171
      + 299.483215332031 x172 + 310.687072753906 x173 + 322.866668701172 x174
      + 263.625152587891 x175 + 176.722778320312 x176 + 219.316253662109 x177
      + 263.933044433594 x178 + 255.686248779297 x179 + 174.963607788086 x180
      + 257.806396484375 x181 + 277.326110839844 x182 + 303.668060302734 x183
      + 307.024047851562 x184 + 238.060821533203 x185 + 296.901123046875 x186
      + 470.912414550781 x187 + 418.396270751953 x188 + 431.582092285156 x189
      + 433.008392333984 x190 + 414.834655761719 x191 + 366.897827148438 x192
      + 421.462585449219 x193 + 406.938781738281 x194 + 451.024688720703 x195
      + 217.178314208984 x196 + 370.553039550781 x197 + 436.229431152344 x198
      + 326.703674316406 x199 + 398.367980957031 x200 + 399.79833984375 x201
      + 337.303283691406 x202 + 397.555450439453 x203 + 386.583312988281 x204
      + 379.914916992188 x205 + 460.431396484375 x206 + 295.629119873047 x207
      + 349.779479980469 x208 + 291.108825683594 x209 + 391.650085449219 x210
      + 387.906311035156 x211 + 323.542053222656 x212 + 426.866943359375 x213
      + 389.444122314453 x214 + 347.805419921875 x215 + 339.061401367188 x216
      + 405.115325927734 x217 + 242.595352172852 x218 + 366.339599609375 x219
      + 293.089538574219 x220 + 440.356384277344 x221 + 275.720581054688 x222
      + 270.672882080078 x223 + 405.298431396484 x224 + 381.791198730469 x225
      + 356.721649169922 x226 + 409.774597167969 x227 + 421.84375 x228
      + 299.483215332031 x229 + 309.457214355469 x230 + 299.038055419922 x231
      + 263.625152587891 x232 + 236.945831298828 x233 + 219.316253662109 x234
      + 309.965423583984 x235 + 246.91943359375 x236 + 190.943618774414 x237
      + 234.73193359375 x238 + 306.898345947266 x239 + 266.230560302734 x240
      + 190.163879394531 x241 + 194.24348449707 x242 + 234.433746337891 x243
      + 455.231994628906 x244 + 452.070159912109 x245 + 413.113739013672 x246
      + 430.501525878906 x247 + 418.07373046875 x248 + 393.4736328125 x249
      + 419.038635253906 x250 + 388.449096679688 x251 + 396.508331298828 x252
      + 389.505462646484 x253 + 278.173919677734 x254 + 353.335388183594 x255
      + 342.347808837891 x256 + 399.71533203125 x257 + 338.437530517578 x258
      + 392.499053955078 x259 + 379.411041259766 x260 + 433.28857421875 x261
      + 398.347808837891 x262 + 272.614135742188 x263 + 387.738677978516 x264
      + 311.555847167969 x265 + 359.279510498047 x266 + 335.914489746094 x267
      + 446.232116699219 x268 + 312.169250488281 x269 + 310.237518310547 x270
      + 394.681243896484 x271 + 405.237915039062 x272 + 330.523315429688 x273
      + 269.133361816406 x274 + 242.595352172852 x275 + 281.105285644531 x276
      + 393.610687255859 x277 + 425.8095703125 x278 + 351.009887695312 x279
      + 369.913238525391 x280 + 378.565032958984 x281 + 347.125183105469 x282
      + 302.135681152344 x283 + 330.819274902344 x284 + 378.53076171875 x285
      + 299.483215332031 x286 + 303.461944580078 x287 + 303.511260986328 x288
      + 314.761505126953 x289 + 270.875701904297 x290 + 219.316253662109 x291
      + 263.933044433594 x292 + 162.281814575195 x293 + 318.741943359375 x294
      + 175.926940917969 x295 + 271.311248779297 x296 + 318.896423339844 x297
      + 306.589172363281 x298 + 171.747909545898 x299 + 290.531951904297 x300
      + 419.617645263672 x301 + 378.191589355469 x302 + 347.597564697266 x303
      + 429.105926513672 x304 + 438.556488037109 x305 + 353.213439941406 x306
      + 419.588409423828 x307 + 373.538055419922 x308 + 439.227355957031 x309
      + 366.014465332031 x310 + 448.232269287109 x311 + 386.783203125 x312
      + 314.045654296875 x313 + 348.697723388672 x314 + 420.578765869141 x315
      + 437.221313476562 x316 + 272.935150146484 x317 + 388.808898925781 x318
      + 425.310852050781 x319 + 415.668182373047 x320 + 377.106689453125 x321
      + 346.376068115234 x322 + 335.170471191406 x323 + 372.455200195312 x324
      + 274.833557128906 x325 + 351.859130859375 x326 + 310.216033935547 x327
      + 465.196166992188 x328 + 379.735473632812 x329 + 407.015777587891 x330
      + 389.343780517578 x331 + 242.595352172852 x332 + 436.033081054688 x333
      + 246.574310302734 x334 + 267.350402832031 x335 + 445.069549560547 x336
      + 339.270324707031 x337 + 249.492034912109 x338 + 354.751953125 x339
      + 382.492095947266 x340 + 352.521484375 x341 + 431.131408691406 x342
      + 306.234161376953 x343 + 269.839294433594 x344 + 303.511260986328 x345
      + 303.74609375 x346 + 320.906951904297 x347 + 252.668060302734 x348
      + 263.933044433594 x349 + 306.115692138672 x350 + 174.963607788086 x351
      + 175.926940917969 x352 + 298.654602050781 x353 + 266.230560302734 x354
      + 318.764556884766 x355 + 198.022354125977 x356 + 235.566528320312 x357
      + 385.122802734375 x358 + 430.038055419922 x359 + 433.615814208984 x360
      + 402.407501220703 x361 + 368.985198974609 x362 + 393.627197265625 x363
      + 349.467620849609 x364 + 418.201599121094 x365 + 380.864105224609 x366
      + 391.888153076172 x367 + 373.817474365234 x368 + 409.650543212891 x369
      + 384.444976806641 x370 + 272.406799316406 x371 + 427.798309326172 x372
      + 361.521911621094 x373 + 424.508056640625 x374 + 265.176025390625 x375
      + 419.967102050781 x376 + 275.280944824219 x377 + 364.601104736328 x378
      + 454.719146728516 x379 + 357.226623535156 x380 + 317.726837158203 x381
      + 324.067016601562 x382 + 269.176788330078 x383 + 284.065002441406 x384
      + 335.150360107422 x385 + 275.642944335938 x386 + 404.079254150391 x387
      + 334.956359863281 x388 + 242.595352172852 x389 + 255.560913085938 x390
      + 400.035705566406 x391 + 358.061706542969 x392 + 388.342346191406 x393
      + 394.872467041016 x394 + 355.271087646484 x395 + 375.9912109375 x396
      + 421.666870117188 x397 + 315.329864501953 x398 + 413.106140136719 x399
      + 299.483215332031 x400 + 269.839294433594 x401 + 258.154296875 x402
      + 313.853210449219 x403 + 320.906951904297 x404 + 271.768890380859 x405
      + 263.933044433594 x406 + 249.835266113281 x407 + 248.826522827148 x408
      + 195.478744506836 x409 + 193.985549926758 x410 + 302.292083740234 x411
      + 306.589172363281 x412 + 171.747909545898 x413 + 316.157073974609 x414
      + 470.912414550781 x415 + 436.806396484375 x416 + 435.836608886719 x417
      + 358.996734619141 x418 + 432.236450195312 x419 + 402.971130371094 x420
      + 426.451599121094 x421 + 351.277770996094 x422 + 387.226867675781 x423
      + 412.219665527344 x424 + 279.593963623047 x425 + 363.884429931641 x426
      + 432.042297363281 x427 + 419.366394042969 x428 + 290.848022460938 x429
      + 430.787902832031 x430 + 244.733871459961 x431 + 205.23258972168 x432
      + 406.850433349609 x433 + 413.106506347656 x434 + 330.017669677734 x435
      + 389.352081298828 x436 + 344.213134765625 x437 + 376.854522705078 x438
      + 339.646850585938 x439 + 345.410217285156 x440 + 182.152313232422 x441
      + 415.178649902344 x442 + 356.326477050781 x443 + 379.101104736328 x444
      + 273.615814208984 x445 + 242.595352172852 x446 + 312.759552001953 x447
      + 396.395446777344 x448 + 363.866760253906 x449 + 272.434631347656 x450
      + 290.557342529297 x451 + 451.798400878906 x452 + 456.595031738281 x453
      + 313.483123779297 x454 + 305.65966796875 x455 + 351.215637207031 x456
Subject To
 c1:  x57 + x86 + x87 + x90 + x106 + x114 + x156 + x171 + x195 + x228 + x253
      + x273 + x285 + x342 + x399 + x424 + x430 + x456  = 1
 c3:  x20 + x77 + x89 + x93 + x110 + x134 + x137 + x144 + x152 + x191 + x248
      + x278 + x305 + x362 + x374 + x419 + x433  = 1
 c5:  x40 + x48 + x83 + x86 + x87 + x97 + 2 x105 + x112 + x140 + x154 + x162
      + x201 + x211 + x213 + x219 + x223 + x256 + x265 + x266 + x268 + x270
      + x276 + x280 + x281 + x310 + x314 + x321 + x322 + x325 + x326 + x331
      + x333 + x339 + x340 + x341 + x368 + x382 + x390 + x391 + x417 + x420
      + x422 + x424 + x439 + x447 + x450 + x456  = 1
 c7:  x33 + x49 + x77 + x85 + x88 + x90 + x91 + x95 + x99 + x106 + x114 + x140
      + x147 + x158 + x163 + x191 + x202 + x204 + x211 + x214 + x217 + x220
      + x224 + x244 + x250 + x261 + x274 + 2 x277 + x304 + x309 + x312 + x314
      + 2 x315 + x318 + x322 + x326 + x331 + x334 + x375 + x379 + x380 + x381
      + x386 + x388 + x391 + x432 + x439 + x448  = 1
 c9:  x52 + x92 + x107 + x109 + x143 + x164 + x166 + x170 + x200 + x207 + x223
      + x245 + x252 + x254 + x263 + x271 + x279 + x280 + x282 + x285 + x317
      + x321 + x336 + x337 + x342 + x367 + x382 + x394 + x442 + x449 + x451
       = 1
 c11: x21 + x24 + x75 + x76 + x78 + x81 + x92 + x102 + x132 + x135 + x136
      + x138 + x141 + x145 + x146 + x147 + x159 + x192 + x195 + x249 + x252
      + x301 + x306 + x309 + x319 + x320 + x336 + x359 + x363 + x366 + x369
      + x420 + x423 + x444  = 1
 c13: x16 + x73 + x79 + x82 + x102 + x130 + x155 + x187 + x244 + x261 + x301
      + x307 + x311 + x358 + x415 + x419 + x452 + x453  = 1
 c15: x38 + x95 + x99 + x111 + x135 + x152 + x164 + x188 + x209 + x216 + x219
      + x249 + x266 + x277 + x312 + x313 + x323 + x329 + x380 + x435 + x437
      + x442 + x447  = 1
 c17: x37 + x81 + x94 + x101 + x136 + x151 + x201 + x208 + x226 + x264 + x265
      + x284 + x305 + x322 + x335 + x360 + x375 + x379 + x394 + x436 + x437
      + x443  = 1
 c19: x56 + x113 + x169 + x170 + x193 + x197 + x203 + x205 + x211 + x217 + x224
      + x227 + x258 + x284 + x341 + x342 + x368 + x373 + x378 + x380 + x398
      + x428 + x430 + x434 + x439 + x455  = 1
 c21: x50 + x106 + x107 + x164 + x169 + x221 + x278 + x335 + x385 + x392 + x394
      + x395 + x423 + x440 + x449  = 1
 c23: x55 + x112 + x162 + x166 + x169 + x199 + x200 + x226 + x269 + x271 + x279
      + x283 + x310 + x340 + x397 + x398 + x454  = 1
 c25: x51 + x96 + x101 + x108 + x140 + x144 + x165 + x222 + x256 + x264 + x267
      + x277 + x279 + x323 + x327 + x336 + x341 + x393 + x396 + x431 + x436
      + x443 + x449 + x450 + x451  = 1
 c27: x22 + x29 + x79 + x86 + 2 x95 + x99 + x107 + x130 + x136 + x143 + x150
      + x156 + x157 + x160 + x162 + x165 + x169 + x193 + x194 + 2 x200 + x211
      + x214 + x250 + x257 + x268 + x270 + x307 + x309 + x314 + x325 + x333
      + x359 + x360 + x361 + x364 + x369 + x371 + x396 + x420 + x421 + x428
      + x448  = 1
 c29: x17 + x74 + x103 + x131 + x163 + x188 + x206 + x210 + x245 + x259 + x268
      + x302 + x328 + x359 + x387 + x416  = 1
 c31: x4 + x13 + 2 x61 + x62 + x70 + x117 + x118 + x119 + x121 + x127 + x175
      + x179 + x181 + x184 + x232 + x241 + x287 + 2 x289 + x290 + x298 + x346
      + x355 + x403 + x412  = 1
 c33: x12 + x69 + x126 + x183 + x230 + x240 + x288 + x297 + x298 + x300 + x345
      + x354 + x411 + x412  = 1
 c35: x2 + x5 + x8 + x11 + x15 + 2 x59 + 2 x62 + x64 + 2 x65 + 2 x66 + 2 x68
      + 2 x72 + 2 x116 + x119 + 2 x122 + 2 x123 + x125 + x127 + x129 + x173
      + x176 + x179 + 3 x182 + 2 x186 + x230 + x231 + x233 + 2 x236 + 2 x239
      + x242 + 3 x243 + x287 + x290 + x293 + x296 + x300 + x344 + x346 + x347
      + x350 + x353 + x355 + 2 x356 + x357 + x401 + x403 + x404 + x405 + 2 x407
      + x410 + 3 x414  = 1
 c37: x1 + x58 + x115 + x172 + x173 + x229 + x235 + x286 + x343 + x400  = 1
 c39: x3 + x7 + x58 + x59 + x60 + x64 + x71 + x117 + x121 + x129 + x174 + x178
      + x183 + x184 + x186 + 2 x231 + x235 + x288 + x292 + x294 + x343 + x345
      + x347 + x349 + x350 + x402 + x404 + x406 + x411 + x414  = 1
 c41: x32 + x85 + x88 + x89 + x146 + x203 + x207 + x208 + x212 + x214 + x222
      + x225 + x256 + x260 + x267 + x308 + x314 + x317 + x371 + x374 + x381
      + x391 + x431  = 1
 c43: x35 + x53 + x54 + x92 + x95 + x96 + x110 + x111 + x139 + x145 + 2 x149
      + x167 + x168 + x200 + x206 + x211 + x213 + x224 + x225 + x226 + x227
      + x246 + x248 + x252 + 2 x260 + x262 + x263 + x267 + x271 + x276 + x278
      + x281 + x282 + x305 + x320 + x322 + x330 + 2 x337 + x338 + x339 + x365
      + x366 + x367 + x370 + x372 + x374 + x377 + x378 + x380 + x382 + x385
      + x391 + x395 + x396 + x417 + x426 + x434 + x438 + x442 + x445 + x451
      + x452 + x453  = 1
 c45: x6 + x63 + x65 + x67 + x68 + x72 + x120 + x177 + x179 + x181 + x185
      + x233 + x234 + x238 + x290 + x291 + x348 + x353 + x357 + x405 + x408
       = 1
 c47: x34 + x91 + x148 + x191 + x202 + x205 + x260 + x262 + x264 + x272 + x310
      + x319 + x326 + x327 + x373 + x376 + x388 + x425 + x433 + x437 + x439
      + x440  = 1
 c49: x47 + x104 + x161 + x218 + x275 + x332 + x389 + x446  = 1
 c51: x30 + x87 + x97 + x112 + x144 + x167 + x201 + x251 + x258 + x264 + x280
      + x315 + x318 + x321 + x322 + x341 + x372 + x378 + x382 + x394 + x397
      + x399 + x421 + x429 + x436  = 1
 c53: x31 + x78 + x83 + x84 + x88 + x100 + x108 + x131 + x134 + x145 + x165
      + x192 + x194 + x202 + x204 + x208 + x215 + x227 + x255 + x257 + x259
      + x277 + x280 + x315 + x316 + x318 + x338 + x373 + x397 + x421 + x428
      + x430 + x434  = 1
 c55: x10 + x60 + x67 + x124 + x125 + x181 + x236 + x238 + x239 + x243 + x295
      + x348 + x352 + x408 + x409  = 1
 c57: x14 + x66 + x67 + x71 + x128 + x174 + x185 + x236 + x237 + x239 + x242
      + x296 + x299 + x356 + x405 + x409 + x413  = 1
 c59: x41 + x44 + x91 + 2 x94 + x96 + x98 + x101 + x108 + 2 x113 + x137 + x155
      + x158 + x189 + x205 + x212 + x214 + x215 + x216 + x219 + x225 + x228
      + x247 + x250 + x255 + x260 + x269 + x272 + x279 + x281 + x309 + x320
      + x323 + x326 + x329 + x331 + x365 + x372 + x377 + x378 + x383 + x386
      + x392 + x395 + x421 + x436 + x439 + x440 + x443 + x445 + x451 + x454
       = 1
 c61: x9 + x65 + x66 + x122 + x123 + x180 + x182 + x236 + x237 + x239 + x241
      + x243 + x294 + x296 + x297 + x348 + x351 + x405 + x408  = 1
 c63: x23 + x25 + x27 + x28 + x36 + x39 + x42 + x43 + x45 + x46 + x75 + x76
      + x80 + x81 + x82 + x83 + x84 + 4 x85 + x88 + x89 + x90 + x93 + 2 x94
      + x95 + x96 + 2 x97 + x98 + x99 + 2 x100 + 2 x101 + x102 + x103 + x105
      + x109 + x110 + x111 + x114 + x134 + x137 + x138 + x139 + x140 + x141
      + x142 + x146 + x147 + x149 + x150 + 2 x153 + x154 + x156 + x157 + x158
      + 2 x159 + 2 x160 + x164 + x165 + x168 + x187 + x190 + x193 + x194 + x196
      + x197 + x198 + x199 + 2 x201 + 2 x202 + 2 x203 + x204 + x205 + x207
      + x208 + x210 + x211 + x212 + 2 x213 + x214 + 2 x215 + x216 + 3 x217
      + 2 x219 + x220 + x221 + x222 + 2 x224 + x226 + x227 + x228 + x251
      + 2 x253 + 2 x255 + x256 + 2 x257 + 2 x258 + x260 + x262 + x264 + x265
      + 2 x266 + 2 x267 + x270 + 2 x271 + 2 x272 + x273 + 2 x274 + x278
      + 2 x281 + x282 + 2 x284 + x308 + x310 + x312 + x313 + x315 + x316 + x317
      + 3 x318 + x321 + x324 + 2 x327 + x328 + 2 x329 + 5 x330 + 2 x331 + x333
      + x334 + x339 + 2 x340 + x341 + x361 + 2 x362 + 2 x363 + x364 + x365
      + x367 + x368 + x369 + 2 x370 + 2 x373 + x378 + 3 x381 + x382 + x383
      + 2 x384 + 2 x385 + x387 + 2 x388 + 2 x392 + x394 + 3 x395 + x399 + x415
      + x422 + x424 + x425 + x426 + x427 + 2 x428 + 2 x429 + x434 + 2 x435
      + 2 x436 + x437 + 2 x438 + x440 + x441 + x442 + x444 + x445 + 2 x448
      + x449 + x455  = 1
 c65: x18 + x19 + x26 + x75 + x76 + x78 + x83 + x94 + x98 + x132 + x133 + x140
      + x142 + x153 + x162 + x168 + x189 + x190 + x197 + x198 + x209 + x214
      + x215 + x220 + x221 + x246 + x247 + x254 + x255 + x262 + x303 + x304
      + x311 + x316 + x324 + x331 + x360 + x361 + 2 x368 + x376 + x379 + x393
      + x416 + x417 + x418 + x425 + x427 + x434 + x449 + x455  = 1
Bounds
 0 <= x1 <= 1
 0 <= x2 <= 1
 0 <= x3 <= 1
 0 <= x4 <= 1
 0 <= x5 <= 1
 0 <= x6 <= 1
 0 <= x7 <= 1
 0 <= x8 <= 1
 0 <= x9 <= 1
 0 <= x10 <= 1
 0 <= x11 <= 1
 0 <= x12 <= 1
 0 <= x13 <= 1
 0 <= x14 <= 1
 0 <= x15 <= 1
 0 <= x16 <= 1
 0 <= x17 <= 1
 0 <= x18 <= 1
 0 <= x19 <= 1
 0 <= x20 <= 1
 0 <= x21 <= 1
 0 <= x22 <= 1
 0 <= x23 <= 1
 0 <= x24 <= 1
 0 <= x25 <= 1
 0 <= x26 <= 1
 0 <= x27 <= 1
 0 <= x28 <= 1
 0 <= x29 <= 1
 0 <= x30 <= 1
 0 <= x31 <= 1
 0 <= x32 <= 1
 0 <= x33 <= 1
 0 <= x34 <= 1
 0 <= x35 <= 1
 0 <= x36 <= 1
 0 <= x37 <= 1
 0 <= x38 <= 1
 0 <= x39 <= 1
 0 <= x40 <= 1
 0 <= x41 <= 1
 0 <= x42 <= 1
 0 <= x43 <= 1
 0 <= x44 <= 1
 0 <= x45 <= 1
 0 <= x46 <= 1
 0 <= x47 <= 1
 0 <= x48 <= 1
 0 <= x49 <= 1
 0 <= x50 <= 1
 0 <= x51 <= 1
 0 <= x52 <= 1
 0 <= x53 <= 1
 0 <= x54 <= 1
 0 <= x55 <= 1
 0 <= x56 <= 1
 0 <= x57 <= 1
 0 <= x58 <= 1
 0 <= x59 <= 1
 0 <= x60 <= 1
 0 <= x61 <= 1
 0 <= x62 <= 1
 0 <= x63 <= 1
 0 <= x64 <= 1
 0 <= x65 <= 1
 0 <= x66 <= 1
 0 <= x67 <= 1
 0 <= x68 <= 1
 0 <= x69 <= 1
 0 <= x70 <= 1
 0 <= x71 <= 1
 0 <= x72 <= 1
 0 <= x73 <= 1
 0 <= x74 <= 1
 0 <= x75 <= 1
 0 <= x76 <= 1
 0 <= x77 <= 1
 0 <= x78 <= 1
 0 <= x79 <= 1
 0 <= x80 <= 1
 0 <= x81 <= 1
 0 <= x82 <= 1
 0 <= x83 <= 1
 0 <= x84 <= 1
 0 <= x85 <= 1
 0 <= x86 <= 1
 0 <= x87 <= 1
 0 <= x88 <= 1
 0 <= x89 <= 1
 0 <= x90 <= 1
 0 <= x91 <= 1
 0 <= x92 <= 1
 0 <= x93 <= 1
 0 <= x94 <= 1
 0 <= x95 <= 1
 0 <= x96 <= 1
 0 <= x97 <= 1
 0 <= x98 <= 1
 0 <= x99 <= 1
 0 <= x100 <= 1
 0 <= x101 <= 1
 0 <= x102 <= 1
 0 <= x103 <= 1
 0 <= x104 <= 1
 0 <= x105 <= 1
 0 <= x106 <= 1
 0 <= x107 <= 1
 0 <= x108 <= 1
 0 <= x109 <= 1
 0 <= x110 <= 1
 0 <= x111 <= 1
 0 <= x112 <= 1
 0 <= x113 <= 1
 0 <= x114 <= 1
 0 <= x115 <= 1
 0 <= x116 <= 1
 0 <= x117 <= 1
 0 <= x118 <= 1
 0 <= x119 <= 1
 0 <= x120 <= 1
 0 <= x121 <= 1
 0 <= x122 <= 1
 0 <= x123 <= 1
 0 <= x124 <= 1
 0 <= x125 <= 1
 0 <= x126 <= 1
 0 <= x127 <= 1
 0 <= x128 <= 1
 0 <= x129 <= 1
 0 <= x130 <= 1
 0 <= x131 <= 1
 0 <= x132 <= 1
 0 <= x133 <= 1
 0 <= x134 <= 1
 0 <= x135 <= 1
 0 <= x136 <= 1
 0 <= x137 <= 1
 0 <= x138 <= 1
 0 <= x139 <= 1
 0 <= x140 <= 1
 0 <= x141 <= 1
 0 <= x142 <= 1
 0 <= x143 <= 1
 0 <= x144 <= 1
 0 <= x145 <= 1
 0 <= x146 <= 1
 0 <= x147 <= 1
 0 <= x148 <= 1
 0 <= x149 <= 1
 0 <= x150 <= 1
 0 <= x151 <= 1
 0 <= x152 <= 1
 0 <= x153 <= 1
 0 <= x154 <= 1
 0 <= x155 <= 1
 0 <= x156 <= 1
 0 <= x157 <= 1
 0 <= x158 <= 1
 0 <= x159 <= 1
 0 <= x160 <= 1
 0 <= x161 <= 1
 0 <= x162 <= 1
 0 <= x163 <= 1
 0 <= x164 <= 1
 0 <= x165 <= 1
 0 <= x166 <= 1
 0 <= x167 <= 1
 0 <= x168 <= 1
 0 <= x169 <= 1
 0 <= x170 <= 1
 0 <= x171 <= 1
 0 <= x172 <= 1
 0 <= x173 <= 1
 0 <= x174 <= 1
 0 <= x175 <= 1
 0 <= x176 <= 1
 0 <= x177 <= 1
 0 <= x178 <= 1
 0 <= x179 <= 1
 0 <= x180 <= 1
 0 <= x181 <= 1
 0 <= x182 <= 1
 0 <= x183 <= 1
 0 <= x184 <= 1
 0 <= x185 <= 1
 0 <= x186 <= 1
 0 <= x187 <= 1
 0 <= x188 <= 1
 0 <= x189 <= 1
 0 <= x190 <= 1
 0 <= x191 <= 1
 0 <= x192 <= 1
 0 <= x193 <= 1
 0 <= x194 <= 1
 0 <= x195 <= 1
 0 <= x196 <= 1
 0 <= x197 <= 1
 0 <= x198 <= 1
 0 <= x199 <= 1
 0 <= x200 <= 1
 0 <= x201 <= 1
 0 <= x202 <= 1
 0 <= x203 <= 1
 0 <= x204 <= 1
 0 <= x205 <= 1
 0 <= x206 <= 1
 0 <= x207 <= 1
 0 <= x208 <= 1
 0 <= x209 <= 1
 0 <= x210 <= 1
 0 <= x211 <= 1
 0 <= x212 <= 1
 0 <= x213 <= 1
 0 <= x214 <= 1
 0 <= x215 <= 1
 0 <= x216 <= 1
 0 <= x217 <= 1
 0 <= x218 <= 1
 0 <= x219 <= 1
 0 <= x220 <= 1
 0 <= x221 <= 1
 0 <= x222 <= 1
 0 <= x223 <= 1
 0 <= x224 <= 1
 0 <= x225 <= 1
 0 <= x226 <= 1
 0 <= x227 <= 1
 0 <= x228 <= 1
 0 <= x229 <= 1
 0 <= x230 <= 1
 0 <= x231 <= 1
 0 <= x232 <= 1
 0 <= x233 <= 1
 0 <= x234 <= 1
 0 <= x235 <= 1
 0 <= x236 <= 1
 0 <= x237 <= 1
 0 <= x238 <= 1
 0 <= x239 <= 1
 0 <= x240 <= 1
 0 <= x241 <= 1
 0 <= x242 <= 1
 0 <= x243 <= 1
 0 <= x244 <= 1
 0 <= x245 <= 1
 0 <= x246 <= 1
 0 <= x247 <= 1
 0 <= x248 <= 1
 0 <= x249 <= 1
 0 <= x250 <= 1
 0 <= x251 <= 1
 0 <= x252 <= 1
 0 <= x253 <= 1
 0 <= x254 <= 1
 0 <= x255 <= 1
 0 <= x256 <= 1
 0 <= x257 <= 1
 0 <= x258 <= 1
 0 <= x259 <= 1
 0 <= x260 <= 1
 0 <= x261 <= 1
 0 <= x262 <= 1
 0 <= x263 <= 1
 0 <= x264 <= 1
 0 <= x265 <= 1
 0 <= x266 <= 1
 0 <= x267 <= 1
 0 <= x268 <= 1
 0 <= x269 <= 1
 0 <= x270 <= 1
 0 <= x271 <= 1
 0 <= x272 <= 1
 0 <= x273 <= 1
 0 <= x274 <= 1
 0 <= x275 <= 1
 0 <= x276 <= 1
 0 <= x277 <= 1
 0 <= x278 <= 1
 0 <= x279 <= 1
 0 <= x280 <= 1
 0 <= x281 <= 1
 0 <= x282 <= 1
 0 <= x283 <= 1
 0 <= x284 <= 1
 0 <= x285 <= 1
 0 <= x286 <= 1
 0 <= x287 <= 1
 0 <= x288 <= 1
 0 <= x289 <= 1
 0 <= x290 <= 1
 0 <= x291 <= 1
 0 <= x292 <= 1
 0 <= x293 <= 1
 0 <= x294 <= 1
 0 <= x295 <= 1
 0 <= x296 <= 1
 0 <= x297 <= 1
 0 <= x298 <= 1
 0 <= x299 <= 1
 0 <= x300 <= 1
 0 <= x301 <= 1
 0 <= x302 <= 1
 0 <= x303 <= 1
 0 <= x304 <= 1
 0 <= x305 <= 1
 0 <= x306 <= 1
 0 <= x307 <= 1
 0 <= x308 <= 1
 0 <= x309 <= 1
 0 <= x310 <= 1
 0 <= x311 <= 1
 0 <= x312 <= 1
 0 <= x313 <= 1
 0 <= x314 <= 1
 0 <= x315 <= 1
 0 <= x316 <= 1
 0 <= x317 <= 1
 0 <= x318 <= 1
 0 <= x319 <= 1
 0 <= x320 <= 1
 0 <= x321 <= 1
 0 <= x322 <= 1
 0 <= x323 <= 1
 0 <= x324 <= 1
 0 <= x325 <= 1
 0 <= x326 <= 1
 0 <= x327 <= 1
 0 <= x328 <= 1
 0 <= x329 <= 1
 0 <= x330 <= 1
 0 <= x331 <= 1
 0 <= x332 <= 1
 0 <= x333 <= 1
 0 <= x334 <= 1
 0 <= x335 <= 1
 0 <= x336 <= 1
 0 <= x337 <= 1
 0 <= x338 <= 1
 0 <= x339 <= 1
 0 <= x340 <= 1
 0 <= x341 <= 1
 0 <= x342 <= 1
 0 <= x343 <= 1
 0 <= x344 <= 1
 0 <= x345 <= 1
 0 <= x346 <= 1
 0 <= x347 <= 1
 0 <= x348 <= 1
 0 <= x349 <= 1
 0 <= x350 <= 1
 0 <= x351 <= 1
 0 <= x352 <= 1
 0 <= x353 <= 1
 0 <= x354 <= 1
 0 <= x355 <= 1
 0 <= x356 <= 1
 0 <= x357 <= 1
 0 <= x358 <= 1
 0 <= x359 <= 1
 0 <= x360 <= 1
 0 <= x361 <= 1
 0 <= x362 <= 1
 0 <= x363 <= 1
 0 <= x364 <= 1
 0 <= x365 <= 1
 0 <= x366 <= 1
 0 <= x367 <= 1
 0 <= x368 <= 1
 0 <= x369 <= 1
 0 <= x370 <= 1
 0 <= x371 <= 1
 0 <= x372 <= 1
 0 <= x373 <= 1
 0 <= x374 <= 1
 0 <= x375 <= 1
 0 <= x376 <= 1
 0 <= x377 <= 1
 0 <= x378 <= 1
 0 <= x379 <= 1
 0 <= x380 <= 1
 0 <= x381 <= 1
 0 <= x382 <= 1
 0 <= x383 <= 1
 0 <= x384 <= 1
 0 <= x385 <= 1
 0 <= x386 <= 1
 0 <= x387 <= 1
 0 <= x388 <= 1
 0 <= x389 <= 1
 0 <= x390 <= 1
 0 <= x391 <= 1
 0 <= x392 <= 1
 0 <= x393 <= 1
 0 <= x394 <= 1
 0 <= x395 <= 1
 0 <= x396 <= 1
 0 <= x397 <= 1
 0 <= x398 <= 1
 0 <= x399 <= 1
 0 <= x400 <= 1
 0 <= x401 <= 1
 0 <= x402 <= 1
 0 <= x403 <= 1
 0 <= x404 <= 1
 0 <= x405 <= 1
 0 <= x406 <= 1
 0 <= x407 <= 1
 0 <= x408 <= 1
 0 <= x409 <= 1
 0 <= x410 <= 1
 0 <= x411 <= 1
 0 <= x412 <= 1
 0 <= x413 <= 1
 0 <= x414 <= 1
 0 <= x415 <= 1
 0 <= x416 <= 1
 0 <= x417 <= 1
 0 <= x418 <= 1
 0 <= x419 <= 1
 0 <= x420 <= 1
 0 <= x421 <= 1
 0 <= x422 <= 1
 0 <= x423 <= 1
 0 <= x424 <= 1
 0 <= x425 <= 1
 0 <= x426 <= 1
 0 <= x427 <= 1
 0 <= x428 <= 1
 0 <= x429 <= 1
 0 <= x430 <= 1
 0 <= x431 <= 1
 0 <= x432 <= 1
 0 <= x433 <= 1
 0 <= x434 <= 1
 0 <= x435 <= 1
 0 <= x436 <= 1
 0 <= x437 <= 1
 0 <= x438 <= 1
 0 <= x439 <= 1
 0 <= x440 <= 1
 0 <= x441 <= 1
 0 <= x442 <= 1
 0 <= x443 <= 1
 0 <= x444 <= 1
 0 <= x445 <= 1
 0 <= x446 <= 1
 0 <= x447 <= 1
 0 <= x448 <= 1
 0 <= x449 <= 1
 0 <= x450 <= 1
 0 <= x451 <= 1
 0 <= x452 <= 1
 0 <= x453 <= 1
 0 <= x454 <= 1
 0 <= x455 <= 1
 0 <= x456 <= 1
Binaries
 x1  x2  x3  x4  x5  x6  x7  x8  x9  x10  x11  x12  x13  x14  x15  x16  x17 
 x18  x19  x20  x21  x22  x23  x24  x25  x26  x27  x28  x29  x30  x31  x32 
 x33  x34  x35  x36  x37  x38  x39  x40  x41  x42  x43  x44  x45  x46  x47 
 x48  x49  x50  x51  x52  x53  x54  x55  x56  x57  x58  x59  x60  x61  x62 
 x63  x64  x65  x66  x67  x68  x69  x70  x71  x72  x73  x74  x75  x76  x77 
 x78  x79  x80  x81  x82  x83  x84  x85  x86  x87  x88  x89  x90  x91  x92 
 x93  x94  x95  x96  x97  x98  x99  x100  x101  x102  x103  x104  x105  x106 
 x107  x108  x109  x110  x111  x112  x113  x114  x115  x116  x117  x118  x119 
 x120  x121  x122  x123  x124  x125  x126  x127  x128  x129  x130  x131  x132 
 x133  x134  x135  x136  x137  x138  x139  x140  x141  x142  x143  x144  x145 
 x146  x147  x148  x149  x150  x151  x152  x153  x154  x155  x156  x157  x158 
 x159  x160  x161  x162  x163  x164  x165  x166  x167  x168  x169  x170  x171 
 x172  x173  x174  x175  x176  x177  x178  x179  x180  x181  x182  x183  x184 
 x185  x186  x187  x188  x189  x190  x191  x192  x193  x194  x195  x196  x197 
 x198  x199  x200  x201  x202  x203  x204  x205  x206  x207  x208  x209  x210 
 x211  x212  x213  x214  x215  x216  x217  x218  x219  x220  x221  x222  x223 
 x224  x225  x226  x227  x228  x229  x230  x231  x232  x233  x234  x235  x236 
 x237  x238  x239  x240  x241  x242  x243  x244  x245  x246  x247  x248  x249 
 x250  x251  x252  x253  x254  x255  x256  x257  x258  x259  x260  x261  x262 
 x263  x264  x265  x266  x267  x268  x269  x270  x271  x272  x273  x274  x275 
 x276  x277  x278  x279  x280  x281  x282  x283  x284  x285  x286  x287  x288 
 x289  x290  x291  x292  x293  x294  x295  x296  x297  x298  x299  x300  x301 
 x302  x303  x304  x305  x306  x307  x308  x309  x310  x311  x312  x313  x314 
 x315  x316  x317  x318  x319  x320  x321  x322  x323  x324  x325  x326  x327 
 x328  x329  x330  x331  x332  x333  x334  x335  x336  x337  x338  x339  x340 
 x341  x342  x343  x344  x345  x346  x347  x348  x349  x350  x351  x352  x353 
 x354  x355  x356  x357  x358  x359  x360  x361  x362  x363  x364  x365  x366 
 x367  x368  x369  x370  x371  x372  x373  x374  x375  x376  x377  x378  x379 
 x380  x381  x382  x383  x384  x385  x386  x387  x388  x389  x390  x391  x392 
 x393  x394  x395  x396  x397  x398  x399  x400  x401  x402  x403  x404  x405 
 x406  x407  x408  x409  x410  x411  x412  x413  x414  x415  x416  x417  x418 
 x419  x420  x421  x422  x423  x424  x425  x426  x427  x428  x429  x430  x431 
 x432  x433  x434  x435  x436  x437  x438  x439  x440  x441  x442  x443  x444 
 x445  x446  x447  x448  x449  x450  x451  x452  x453  x454  x455  x456 
End
